==========================================
SLURM_JOB_ID = 536020
SLURM_NODELIST = gnode19
SLURM_JOB_GPUS = 1
==========================================
/var/spool/slurmd/job536020/slurm_script: line 10: /home/sriaish/keras/bin/activate: No such file or directory
((4, 8), (4, 8), True, 'p')
initial belief setup
variables setup
objective setup
eq1
problem setup
apm 14.139.82.6_gk_model0 <br><pre> ----------------------------------------------------------------
 APMonitor, Version 1.0.1
 APMonitor Optimization Suite
 ----------------------------------------------------------------
 
 
 Warning: there is insufficient data in CSV file 14.139.82.6_gk_model0.csv
 
 --------- APM Model Size ------------
 Each time step contains
   Objects      :            0
   Constants    :            0
   Variables    :        33367
   Intermediates:            0
   Connections  :            0
   Equations    :        33367
   Residuals    :        33367
 
 Number of state variables:          33367
 Number of total equations: -         6642
 Number of slack variables: -            0
 ---------------------------------------
 Degrees of freedom       :          26725
 
 **********************************************
 Steady State Optimization with Interior Point Solver
 **********************************************
  
  
 Info: Exact Hessian

******************************************************************************
This program contains Ipopt, a library for large-scale nonlinear optimization.
 Ipopt is released as open source code under the Eclipse Public License (EPL).
         For more information visit http://projects.coin-or.org/Ipopt
******************************************************************************

This is Ipopt version 3.12.10, running with linear solver ma57.

Number of nonzeros in equality constraint Jacobian...:    83705
Number of nonzeros in inequality constraint Jacobian.:        0
Number of nonzeros in Lagrangian Hessian.............:    60092

Total number of variables............................:    33367
                     variables with only lower bounds:        0
                variables with lower and upper bounds:        0
                     variables with only upper bounds:        0
Total number of equality constraints.................:     6642
Total number of inequality constraints...............:        0
        inequality constraints with only lower bounds:        0
   inequality constraints with lower and upper bounds:        0
        inequality constraints with only upper bounds:        0

iter    objective    inf_pr   inf_du lg(mu)  ||d||  lg(rg) alpha_du alpha_pr  ls
   0  2.6886000e+04 3.86e+00 1.37e+00   0.0 0.00e+00    -  0.00e+00 0.00e+00   0
   1  1.0803842e+04 1.48e+00 2.78e+01 -11.0 8.05e-01   2.0 1.00e+00 1.00e+00f  1
   2  4.5759139e+03 7.85e-01 4.57e+01 -11.0 1.23e+00   1.5 1.00e+00 1.00e+00f  1
   3  2.2406292e+03 4.09e+00 2.27e+03 -11.0 2.74e+00   1.0 1.00e+00 1.00e+00f  1
   4  1.2620747e+03 1.20e+00 8.68e+02 -11.0 7.09e-01   2.4 1.00e+00 1.00e+00f  1
   5  9.6417154e+02 2.72e-01 4.62e+02 -11.0 6.33e-01   2.8 1.00e+00 1.00e+00f  1
   6  9.7523291e+02 2.45e-02 1.27e+02 -11.0 6.53e-01   2.3 1.00e+00 1.00e+00h  1
   7  9.7346801e+02 2.62e-04 1.49e+01 -11.0 1.20e-01   1.8 1.00e+00 1.00e+00f  1
   8  9.6738945e+02 5.13e-05 2.96e-01 -11.0 1.29e-02   1.4 1.00e+00 1.00e+00f  1
   9  9.4970010e+02 3.81e-04 2.87e-01 -11.0 3.67e-02   0.9 1.00e+00 1.00e+00f  1
iter    objective    inf_pr   inf_du lg(mu)  ||d||  lg(rg) alpha_du alpha_pr  ls
  10  9.0117900e+02 2.36e-03 2.62e-01 -11.0 1.00e-01   0.4 1.00e+00 1.00e+00f  1
  11  7.8660730e+02 9.21e-03 2.11e-01 -11.0 2.37e-01  -0.1 1.00e+00 1.00e+00f  1
  12  5.8772321e+02 1.93e-02 1.41e-01 -11.0 4.36e-01  -0.5 1.00e+00 1.00e+00f  1
  13  3.6393308e+02 2.38e-02 7.90e-02 -11.0 6.18e-01  -1.0 1.00e+00 1.00e+00f  1
  14  1.9369297e+02 2.05e-02 3.93e-02 -11.0 7.40e-01  -1.5 1.00e+00 1.00e+00f  1
  15  9.3198026e+01 1.37e-02 1.80e-02 -11.0 8.15e-01  -2.0 1.00e+00 1.00e+00f  1
  16  4.1991512e+01 7.63e-03 1.01e-02 -11.0 8.61e-01  -2.4 1.00e+00 1.00e+00f  1
  17  1.8098551e+01 3.76e-03 5.30e-03 -11.0 8.91e-01  -2.9 1.00e+00 1.00e+00f  1
  18  7.5600489e+00 1.70e-03 2.54e-03 -11.0 9.12e-01  -3.4 1.00e+00 1.00e+00f  1
  19  3.0861820e+00 7.35e-04 1.15e-03 -11.0 9.28e-01  -3.9 1.00e+00 1.00e+00f  1
iter    objective    inf_pr   inf_du lg(mu)  ||d||  lg(rg) alpha_du alpha_pr  ls
  20  1.2380764e+00 3.06e-04 4.94e-04 -11.0 9.39e-01  -4.4 1.00e+00 1.00e+00f  1
  21  4.8997906e-01 1.24e-04 2.07e-04 -11.0 9.49e-01  -4.8 1.00e+00 1.00e+00f  1
  22  1.9182954e-01 4.98e-05 8.46e-05 -11.0 9.56e-01  -5.3 1.00e+00 1.00e+00f  1
  23  7.4447818e-02 1.96e-05 3.40e-05 -11.0 9.62e-01  -5.8 1.00e+00 1.00e+00f  1
  24  2.8685506e-02 7.66e-06 1.35e-05 -11.0 9.67e-01  -6.3 1.00e+00 1.00e+00f  1
  25  1.0986780e-02 2.97e-06 5.28e-06 -11.0 9.71e-01  -6.7 1.00e+00 1.00e+00f  1
  26  4.1868601e-03 1.14e-06 2.05e-06 -11.0 9.74e-01  -7.2 1.00e+00 1.00e+00f  1
  27  1.5887201e-03 4.36e-07 7.91e-07 -11.0 9.77e-01  -7.7 1.00e+00 1.00e+00f  1

Number of Iterations....: 27

                                   (scaled)                 (unscaled)
Objective...............:   1.5887200634138784e-03    1.5887200634138784e-03
Dual infeasibility......:   7.9138120147706732e-07    7.9138120147706732e-07
Constraint violation....:   4.3567662366683635e-07    4.3567662366683635e-07
Complementarity.........:   0.0000000000000000e+00    0.0000000000000000e+00
Overall NLP error.......:   7.9138120147706732e-07    7.9138120147706732e-07


Number of objective function evaluations             = 28
Number of objective gradient evaluations             = 28
Number of equality constraint evaluations            = 28
Number of inequality constraint evaluations          = 0
Number of equality constraint Jacobian evaluations   = 28
Number of inequality constraint Jacobian evaluations = 0
Number of Lagrangian Hessian evaluations             = 27
Total CPU secs in IPOPT (w/o function evaluations)   =      2.360
Total CPU secs in NLP function evaluations           =     17.069

EXIT: Optimal Solution Found.
 
 The solution was found.
 
 The final value of the objective function is   1.588720063413878E-003
 
 ---------------------------------------------------
 Solver         :  IPOPT (v3.12)
 Solution time  :    28.4320999999982      sec
 Objective      :   1.588720063413878E-003
 Successful solution
 ---------------------------------------------------
 
----------------------------------------
Traceback (most recent call last):
  File "NCAgent.py", line 138, in <module>
    agent.calculate_pi()
  File "NCAgent.py", line 98, in calculate_pi
    print("Objective Value: ", m.options.OBJFCNVAL)
NameError: name 'm' is not defined
1818
--------------------
((5, 10), (5, 10), True, 'p')
initial belief setup
variables setup
objective setup
/var/spool/slurmd/job536020/slurm_script: line 18: 18732 Killed                  python3.7 NCAgent.py 11 5 3 4 3 5 10 11_11
5163
--------------------
((6, 12), (6, 12), True, 'p')
initial belief setup
variables setup
objective setup
/var/spool/slurmd/job536020/slurm_script: line 24: 20122 Killed                  python3.7 NCAgent.py 13 7 3 5 3 6 12 13_13
5452
slurmstepd: error: Detected 2 oom-kill event(s) in step 536020.batch cgroup. Some of your processes may have been killed by the cgroup out-of-memory handler.
